language Essence 1.3
letting nnodes be 100
letting nrings be 75
letting capacity be 75
letting demand be 
{{1, 2},
{1, 4},
{1, 5},
{1, 6},
{1, 9},
{1, 11},
{1, 12},
{1, 13},
{1, 14},
{1, 16},
{1, 19},
{1, 21},
{1, 22},
{1, 24},
{1, 26},
{1, 28},
{1, 29},
{1, 37},
{1, 39},
{1, 40},
{1, 41},
{1, 42},
{1, 43},
{1, 48},
{1, 51},
{1, 53},
{1, 59},
{1, 62},
{1, 68},
{1, 69},
{1, 73},
{1, 74},
{1, 76},
{1, 77},
{1, 78},
{1, 79},
{1, 81},
{1, 84},
{1, 85},
{1, 87},
{1, 88},
{1, 91},
{1, 95},
{1, 96},
{1, 98},
{1, 100},
{2, 3},
{2, 5},
{2, 7},
{2, 10},
{2, 12},
{2, 14},
{2, 18},
{2, 21},
{2, 22},
{2, 24},
{2, 25},
{2, 27},
{2, 28},
{2, 29},
{2, 30},
{2, 32},
{2, 38},
{2, 40},
{2, 43},
{2, 44},
{2, 45},
{2, 51},
{2, 52},
{2, 55},
{2, 56},
{2, 57},
{2, 62},
{2, 67},
{2, 68},
{2, 69},
{2, 70},
{2, 71},
{2, 73},
{2, 74},
{2, 75},
{2, 76},
{2, 82},
{2, 84},
{2, 86},
{2, 88},
{2, 89},
{2, 90},
{2, 91},
{2, 95},
{2, 98},
{3, 4},
{3, 10},
{3, 11},
{3, 15},
{3, 16},
{3, 17},
{3, 19},
{3, 20},
{3, 23},
{3, 27},
{3, 28},
{3, 29},
{3, 33},
{3, 35},
{3, 36},
{3, 38},
{3, 40},
{3, 43},
{3, 44},
{3, 48},
{3, 50},
{3, 51},
{3, 55},
{3, 56},
{3, 60},
{3, 61},
{3, 62},
{3, 65},
{3, 67},
{3, 70},
{3, 73},
{3, 75},
{3, 77},
{3, 79},
{3, 84},
{3, 87},
{3, 88},
{3, 89},
{3, 90},
{3, 93},
{3, 97},
{3, 98},
{3, 100},
{4, 5},
{4, 6},
{4, 7},
{4, 8},
{4, 14},
{4, 15},
{4, 16},
{4, 18},
{4, 20},
{4, 29},
{4, 32},
{4, 34},
{4, 38},
{4, 40},
{4, 43},
{4, 44},
{4, 47},
{4, 48},
{4, 50},
{4, 51},
{4, 59},
{4, 61},
{4, 63},
{4, 64},
{4, 66},
{4, 67},
{4, 69},
{4, 70},
{4, 71},
{4, 72},
{4, 73},
{4, 75},
{4, 78},
{4, 79},
{4, 82},
{4, 83},
{4, 86},
{4, 90},
{4, 93},
{4, 95},
{4, 97},
{4, 98},
{4, 99},
{5, 6},
{5, 9},
{5, 10},
{5, 12},
{5, 17},
{5, 24},
{5, 27},
{5, 28},
{5, 30},
{5, 31},
{5, 32},
{5, 34},
{5, 35},
{5, 36},
{5, 37},
{5, 39},
{5, 42},
{5, 44},
{5, 46},
{5, 47},
{5, 49},
{5, 53},
{5, 55},
{5, 56},
{5, 57},
{5, 59},
{5, 63},
{5, 69},
{5, 75},
{5, 76},
{5, 77},
{5, 78},
{5, 82},
{5, 84},
{5, 86},
{5, 87},
{5, 89},
{5, 90},
{5, 93},
{5, 95},
{5, 96},
{5, 97},
{5, 98},
{5, 99},
{6, 9},
{6, 11},
{6, 14},
{6, 15},
{6, 17},
{6, 20},
{6, 22},
{6, 23},
{6, 27},
{6, 28},
{6, 30},
{6, 33},
{6, 34},
{6, 37},
{6, 38},
{6, 39},
{6, 43},
{6, 44},
{6, 48},
{6, 50},
{6, 52},
{6, 55},
{6, 56},
{6, 57},
{6, 58},
{6, 60},
{6, 62},
{6, 65},
{6, 66},
{6, 69},
{6, 70},
{6, 74},
{6, 76},
{6, 78},
{6, 81},
{6, 83},
{6, 87},
{6, 88},
{6, 90},
{6, 93},
{6, 94},
{6, 95},
{6, 98},
{6, 100},
{7, 9},
{7, 10},
{7, 12},
{7, 15},
{7, 17},
{7, 18},
{7, 19},
{7, 22},
{7, 23},
{7, 24},
{7, 25},
{7, 31},
{7, 32},
{7, 34},
{7, 35},
{7, 36},
{7, 39},
{7, 40},
{7, 42},
{7, 43},
{7, 44},
{7, 46},
{7, 48},
{7, 50},
{7, 52},
{7, 54},
{7, 55},
{7, 60},
{7, 61},
{7, 62},
{7, 64},
{7, 65},
{7, 66},
{7, 68},
{7, 69},
{7, 70},
{7, 73},
{7, 75},
{7, 77},
{7, 78},
{7, 80},
{7, 83},
{7, 87},
{7, 88},
{7, 89},
{7, 90},
{7, 91},
{7, 92},
{7, 94},
{7, 95},
{7, 96},
{7, 97},
{7, 99},
{7, 100},
{8, 12},
{8, 13},
{8, 18},
{8, 19},
{8, 20},
{8, 23},
{8, 25},
{8, 26},
{8, 29},
{8, 30},
{8, 31},
{8, 39},
{8, 40},
{8, 42},
{8, 43},
{8, 45},
{8, 46},
{8, 48},
{8, 55},
{8, 59},
{8, 60},
{8, 61},
{8, 62},
{8, 63},
{8, 64},
{8, 67},
{8, 69},
{8, 70},
{8, 73},
{8, 74},
{8, 76},
{8, 80},
{8, 83},
{8, 87},
{8, 88},
{8, 91},
{8, 93},
{8, 95},
{8, 97},
{8, 98},
{8, 99},
{8, 100},
{9, 10},
{9, 13},
{9, 14},
{9, 18},
{9, 19},
{9, 20},
{9, 22},
{9, 24},
{9, 27},
{9, 29},
{9, 31},
{9, 34},
{9, 36},
{9, 37},
{9, 38},
{9, 42},
{9, 44},
{9, 48},
{9, 50},
{9, 51},
{9, 53},
{9, 55},
{9, 57},
{9, 60},
{9, 62},
{9, 63},
{9, 64},
{9, 65},
{9, 66},
{9, 67},
{9, 68},
{9, 69},
{9, 71},
{9, 72},
{9, 73},
{9, 74},
{9, 76},
{9, 78},
{9, 80},
{9, 81},
{9, 82},
{9, 84},
{9, 87},
{9, 88},
{9, 92},
{9, 93},
{9, 95},
{9, 96},
{9, 99},
{10, 11},
{10, 13},
{10, 14},
{10, 15},
{10, 16},
{10, 17},
{10, 18},
{10, 20},
{10, 21},
{10, 23},
{10, 24},
{10, 27},
{10, 28},
{10, 32},
{10, 33},
{10, 34},
{10, 39},
{10, 43},
{10, 44},
{10, 45},
{10, 47},
{10, 48},
{10, 50},
{10, 54},
{10, 57},
{10, 58},
{10, 59},
{10, 60},
{10, 61},
{10, 70},
{10, 71},
{10, 74},
{10, 77},
{10, 79},
{10, 81},
{10, 83},
{10, 85},
{10, 87},
{10, 88},
{10, 89},
{10, 93},
{10, 94},
{10, 97},
{10, 99},
{11, 12},
{11, 18},
{11, 21},
{11, 24},
{11, 30},
{11, 32},
{11, 33},
{11, 34},
{11, 36},
{11, 41},
{11, 45},
{11, 47},
{11, 48},
{11, 51},
{11, 54},
{11, 55},
{11, 57},
{11, 59},
{11, 62},
{11, 64},
{11, 68},
{11, 74},
{11, 77},
{11, 83},
{11, 84},
{11, 85},
{11, 86},
{11, 87},
{11, 92},
{11, 93},
{11, 94},
{11, 95},
{11, 96},
{11, 97},
{11, 98},
{11, 99},
{11, 100},
{12, 18},
{12, 19},
{12, 20},
{12, 21},
{12, 22},
{12, 25},
{12, 26},
{12, 28},
{12, 33},
{12, 34},
{12, 37},
{12, 40},
{12, 44},
{12, 47},
{12, 48},
{12, 49},
{12, 51},
{12, 53},
{12, 54},
{12, 55},
{12, 60},
{12, 64},
{12, 68},
{12, 73},
{12, 74},
{12, 76},
{12, 79},
{12, 81},
{12, 83},
{12, 84},
{12, 87},
{12, 89},
{12, 92},
{12, 95},
{12, 98},
{12, 99},
{12, 100},
{13, 14},
{13, 16},
{13, 18},
{13, 19},
{13, 22},
{13, 24},
{13, 26},
{13, 28},
{13, 30},
{13, 31},
{13, 34},
{13, 36},
{13, 38},
{13, 40},
{13, 41},
{13, 43},
{13, 47},
{13, 50},
{13, 51},
{13, 53},
{13, 54},
{13, 56},
{13, 57},
{13, 58},
{13, 61},
{13, 62},
{13, 64},
{13, 68},
{13, 70},
{13, 71},
{13, 72},
{13, 79},
{13, 82},
{13, 83},
{13, 85},
{13, 86},
{13, 87},
{13, 90},
{13, 92},
{13, 94},
{13, 95},
{13, 96},
{13, 98},
{14, 16},
{14, 17},
{14, 24},
{14, 26},
{14, 27},
{14, 29},
{14, 35},
{14, 37},
{14, 38},
{14, 40},
{14, 41},
{14, 42},
{14, 43},
{14, 46},
{14, 47},
{14, 48},
{14, 50},
{14, 51},
{14, 54},
{14, 55},
{14, 56},
{14, 62},
{14, 63},
{14, 64},
{14, 68},
{14, 69},
{14, 71},
{14, 73},
{14, 74},
{14, 75},
{14, 79},
{14, 80},
{14, 81},
{14, 83},
{14, 85},
{14, 86},
{14, 89},
{14, 92},
{14, 94},
{14, 98},
{14, 99},
{15, 17},
{15, 18},
{15, 19},
{15, 21},
{15, 24},
{15, 25},
{15, 28},
{15, 30},
{15, 32},
{15, 34},
{15, 35},
{15, 36},
{15, 38},
{15, 39},
{15, 42},
{15, 44},
{15, 45},
{15, 46},
{15, 47},
{15, 51},
{15, 54},
{15, 55},
{15, 56},
{15, 57},
{15, 59},
{15, 62},
{15, 63},
{15, 65},
{15, 72},
{15, 73},
{15, 80},
{15, 81},
{15, 82},
{15, 85},
{15, 86},
{15, 88},
{15, 89},
{15, 92},
{15, 97},
{16, 17},
{16, 18},
{16, 20},
{16, 21},
{16, 22},
{16, 25},
{16, 27},
{16, 30},
{16, 31},
{16, 33},
{16, 34},
{16, 35},
{16, 38},
{16, 39},
{16, 41},
{16, 43},
{16, 47},
{16, 48},
{16, 49},
{16, 50},
{16, 52},
{16, 53},
{16, 57},
{16, 58},
{16, 59},
{16, 60},
{16, 62},
{16, 64},
{16, 67},
{16, 70},
{16, 72},
{16, 73},
{16, 76},
{16, 77},
{16, 79},
{16, 80},
{16, 81},
{16, 85},
{16, 86},
{16, 87},
{16, 88},
{16, 89},
{16, 90},
{16, 93},
{16, 95},
{16, 98},
{16, 99},
{17, 18},
{17, 19},
{17, 20},
{17, 21},
{17, 22},
{17, 23},
{17, 25},
{17, 28},
{17, 33},
{17, 34},
{17, 35},
{17, 36},
{17, 38},
{17, 40},
{17, 41},
{17, 42},
{17, 43},
{17, 47},
{17, 48},
{17, 49},
{17, 56},
{17, 57},
{17, 60},
{17, 63},
{17, 64},
{17, 66},
{17, 67},
{17, 69},
{17, 70},
{17, 72},
{17, 73},
{17, 78},
{17, 80},
{17, 82},
{17, 83},
{17, 88},
{17, 90},
{17, 91},
{17, 95},
{17, 97},
{17, 98},
{17, 100},
{18, 19},
{18, 20},
{18, 24},
{18, 25},
{18, 27},
{18, 31},
{18, 33},
{18, 38},
{18, 42},
{18, 43},
{18, 45},
{18, 46},
{18, 47},
{18, 48},
{18, 49},
{18, 51},
{18, 55},
{18, 56},
{18, 61},
{18, 62},
{18, 63},
{18, 64},
{18, 68},
{18, 73},
{18, 75},
{18, 78},
{18, 79},
{18, 82},
{18, 85},
{18, 86},
{18, 88},
{18, 89},
{18, 90},
{18, 91},
{18, 92},
{18, 93},
{18, 94},
{19, 21},
{19, 22},
{19, 24},
{19, 26},
{19, 28},
{19, 32},
{19, 33},
{19, 36},
{19, 37},
{19, 39},
{19, 40},
{19, 43},
{19, 44},
{19, 45},
{19, 47},
{19, 48},
{19, 49},
{19, 50},
{19, 53},
{19, 54},
{19, 55},
{19, 56},
{19, 58},
{19, 60},
{19, 61},
{19, 63},
{19, 66},
{19, 68},
{19, 69},
{19, 71},
{19, 72},
{19, 75},
{19, 76},
{19, 77},
{19, 78},
{19, 81},
{19, 82},
{19, 85},
{19, 89},
{19, 90},
{19, 91},
{19, 92},
{19, 93},
{19, 94},
{19, 96},
{19, 97},
{19, 99},
{20, 23},
{20, 24},
{20, 25},
{20, 27},
{20, 28},
{20, 29},
{20, 35},
{20, 36},
{20, 37},
{20, 47},
{20, 48},
{20, 49},
{20, 55},
{20, 57},
{20, 58},
{20, 60},
{20, 64},
{20, 67},
{20, 68},
{20, 69},
{20, 70},
{20, 75},
{20, 76},
{20, 78},
{20, 81},
{20, 83},
{20, 84},
{20, 85},
{20, 86},
{20, 88},
{20, 89},
{20, 90},
{20, 92},
{20, 93},
{20, 94},
{20, 95},
{20, 96},
{20, 97},
{20, 98},
{20, 100},
{21, 23},
{21, 24},
{21, 25},
{21, 28},
{21, 31},
{21, 34},
{21, 38},
{21, 39},
{21, 40},
{21, 41},
{21, 43},
{21, 45},
{21, 49},
{21, 56},
{21, 59},
{21, 62},
{21, 63},
{21, 67},
{21, 70},
{21, 71},
{21, 75},
{21, 76},
{21, 77},
{21, 78},
{21, 79},
{21, 80},
{21, 81},
{21, 83},
{21, 88},
{21, 89},
{21, 94},
{21, 95},
{21, 97},
{21, 99},
{21, 100},
{22, 23},
{22, 26},
{22, 27},
{22, 32},
{22, 34},
{22, 35},
{22, 36},
{22, 38},
{22, 40},
{22, 41},
{22, 44},
{22, 46},
{22, 48},
{22, 50},
{22, 54},
{22, 56},
{22, 57},
{22, 59},
{22, 60},
{22, 61},
{22, 62},
{22, 64},
{22, 65},
{22, 66},
{22, 69},
{22, 70},
{22, 71},
{22, 73},
{22, 74},
{22, 79},
{22, 82},
{22, 85},
{22, 86},
{22, 89},
{22, 91},
{22, 92},
{22, 95},
{22, 96},
{22, 98},
{23, 24},
{23, 26},
{23, 28},
{23, 29},
{23, 32},
{23, 39},
{23, 41},
{23, 42},
{23, 43},
{23, 46},
{23, 47},
{23, 48},
{23, 49},
{23, 51},
{23, 61},
{23, 63},
{23, 65},
{23, 66},
{23, 68},
{23, 70},
{23, 73},
{23, 74},
{23, 75},
{23, 80},
{23, 81},
{23, 84},
{23, 86},
{23, 87},
{23, 88},
{23, 89},
{23, 91},
{23, 92},
{23, 93},
{23, 95},
{23, 98},
{23, 99},
{23, 100},
{24, 27},
{24, 29},
{24, 31},
{24, 32},
{24, 35},
{24, 38},
{24, 41},
{24, 42},
{24, 44},
{24, 46},
{24, 47},
{24, 51},
{24, 53},
{24, 54},
{24, 59},
{24, 60},
{24, 61},
{24, 64},
{24, 68},
{24, 69},
{24, 70},
{24, 74},
{24, 81},
{24, 85},
{24, 86},
{24, 87},
{24, 89},
{24, 90},
{24, 93},
{24, 94},
{24, 95},
{24, 97},
{24, 98},
{25, 26},
{25, 30},
{25, 32},
{25, 38},
{25, 41},
{25, 42},
{25, 43},
{25, 45},
{25, 47},
{25, 48},
{25, 49},
{25, 50},
{25, 52},
{25, 57},
{25, 59},
{25, 60},
{25, 65},
{25, 68},
{25, 69},
{25, 70},
{25, 71},
{25, 72},
{25, 73},
{25, 75},
{25, 77},
{25, 78},
{25, 79},
{25, 80},
{25, 81},
{25, 87},
{25, 88},
{25, 89},
{25, 93},
{25, 95},
{25, 96},
{25, 100},
{26, 27},
{26, 32},
{26, 33},
{26, 34},
{26, 36},
{26, 38},
{26, 39},
{26, 40},
{26, 41},
{26, 42},
{26, 43},
{26, 44},
{26, 46},
{26, 47},
{26, 51},
{26, 53},
{26, 55},
{26, 61},
{26, 66},
{26, 70},
{26, 71},
{26, 75},
{26, 79},
{26, 81},
{26, 82},
{26, 85},
{26, 86},
{26, 89},
{26, 91},
{26, 93},
{26, 96},
{26, 97},
{26, 98},
{26, 99},
{27, 28},
{27, 30},
{27, 31},
{27, 32},
{27, 33},
{27, 37},
{27, 39},
{27, 40},
{27, 43},
{27, 44},
{27, 46},
{27, 47},
{27, 54},
{27, 55},
{27, 56},
{27, 58},
{27, 61},
{27, 62},
{27, 64},
{27, 65},
{27, 66},
{27, 69},
{27, 72},
{27, 73},
{27, 76},
{27, 77},
{27, 78},
{27, 85},
{27, 89},
{27, 95},
{27, 97},
{27, 98},
{27, 99},
{27, 100},
{28, 31},
{28, 32},
{28, 35},
{28, 38},
{28, 41},
{28, 44},
{28, 45},
{28, 48},
{28, 50},
{28, 51},
{28, 53},
{28, 55},
{28, 56},
{28, 57},
{28, 58},
{28, 59},
{28, 61},
{28, 63},
{28, 67},
{28, 68},
{28, 71},
{28, 73},
{28, 74},
{28, 75},
{28, 76},
{28, 77},
{28, 80},
{28, 85},
{28, 86},
{28, 87},
{28, 89},
{28, 90},
{28, 91},
{28, 92},
{28, 93},
{28, 99},
{29, 31},
{29, 32},
{29, 35},
{29, 36},
{29, 38},
{29, 39},
{29, 42},
{29, 43},
{29, 45},
{29, 47},
{29, 49},
{29, 50},
{29, 51},
{29, 52},
{29, 56},
{29, 57},
{29, 58},
{29, 59},
{29, 63},
{29, 67},
{29, 68},
{29, 71},
{29, 72},
{29, 75},
{29, 76},
{29, 79},
{29, 80},
{29, 81},
{29, 82},
{29, 83},
{29, 85},
{29, 86},
{29, 91},
{29, 92},
{29, 94},
{29, 96},
{29, 97},
{29, 100},
{30, 32},
{30, 33},
{30, 35},
{30, 36},
{30, 40},
{30, 43},
{30, 48},
{30, 49},
{30, 53},
{30, 54},
{30, 56},
{30, 61},
{30, 62},
{30, 63},
{30, 67},
{30, 68},
{30, 69},
{30, 70},
{30, 71},
{30, 72},
{30, 75},
{30, 76},
{30, 79},
{30, 81},
{30, 86},
{30, 87},
{30, 88},
{30, 89},
{30, 90},
{30, 91},
{30, 92},
{30, 95},
{30, 96},
{30, 99},
{31, 36},
{31, 38},
{31, 40},
{31, 41},
{31, 44},
{31, 46},
{31, 50},
{31, 53},
{31, 55},
{31, 56},
{31, 58},
{31, 59},
{31, 61},
{31, 63},
{31, 64},
{31, 65},
{31, 73},
{31, 75},
{31, 76},
{31, 77},
{31, 78},
{31, 79},
{31, 81},
{31, 83},
{31, 84},
{31, 87},
{31, 89},
{31, 91},
{31, 92},
{31, 95},
{31, 96},
{31, 98},
{31, 100},
{32, 33},
{32, 36},
{32, 39},
{32, 40},
{32, 41},
{32, 43},
{32, 44},
{32, 45},
{32, 47},
{32, 48},
{32, 50},
{32, 53},
{32, 55},
{32, 56},
{32, 59},
{32, 61},
{32, 62},
{32, 64},
{32, 66},
{32, 69},
{32, 70},
{32, 71},
{32, 73},
{32, 76},
{32, 79},
{32, 83},
{32, 84},
{32, 85},
{32, 91},
{32, 92},
{32, 93},
{32, 96},
{32, 99},
{33, 34},
{33, 35},
{33, 41},
{33, 42},
{33, 43},
{33, 44},
{33, 48},
{33, 49},
{33, 50},
{33, 51},
{33, 52},
{33, 53},
{33, 54},
{33, 55},
{33, 56},
{33, 59},
{33, 60},
{33, 61},
{33, 62},
{33, 65},
{33, 66},
{33, 70},
{33, 72},
{33, 74},
{33, 76},
{33, 79},
{33, 80},
{33, 82},
{33, 83},
{33, 84},
{33, 85},
{33, 87},
{33, 88},
{33, 89},
{33, 90},
{33, 94},
{33, 95},
{33, 96},
{33, 97},
{34, 35},
{34, 36},
{34, 37},
{34, 38},
{34, 39},
{34, 40},
{34, 43},
{34, 45},
{34, 50},
{34, 54},
{34, 55},
{34, 59},
{34, 63},
{34, 64},
{34, 66},
{34, 67},
{34, 69},
{34, 72},
{34, 73},
{34, 74},
{34, 75},
{34, 76},
{34, 80},
{34, 81},
{34, 82},
{34, 83},
{34, 85},
{34, 86},
{34, 87},
{34, 89},
{34, 92},
{34, 93},
{34, 94},
{34, 95},
{34, 97},
{34, 99},
{35, 39},
{35, 43},
{35, 48},
{35, 51},
{35, 52},
{35, 53},
{35, 56},
{35, 58},
{35, 59},
{35, 60},
{35, 63},
{35, 64},
{35, 70},
{35, 71},
{35, 72},
{35, 74},
{35, 75},
{35, 77},
{35, 80},
{35, 84},
{35, 86},
{35, 87},
{35, 91},
{35, 92},
{35, 96},
{35, 97},
{36, 38},
{36, 40},
{36, 41},
{36, 42},
{36, 44},
{36, 45},
{36, 46},
{36, 47},
{36, 48},
{36, 49},
{36, 50},
{36, 53},
{36, 56},
{36, 59},
{36, 60},
{36, 61},
{36, 63},
{36, 65},
{36, 67},
{36, 68},
{36, 69},
{36, 70},
{36, 73},
{36, 77},
{36, 78},
{36, 79},
{36, 80},
{36, 81},
{36, 82},
{36, 83},
{36, 84},
{36, 86},
{36, 90},
{36, 92},
{36, 96},
{36, 97},
{37, 41},
{37, 42},
{37, 45},
{37, 46},
{37, 48},
{37, 51},
{37, 52},
{37, 53},
{37, 55},
{37, 56},
{37, 57},
{37, 60},
{37, 61},
{37, 64},
{37, 67},
{37, 69},
{37, 71},
{37, 72},
{37, 77},
{37, 78},
{37, 79},
{37, 80},
{37, 82},
{37, 84},
{37, 88},
{37, 92},
{37, 94},
{37, 95},
{37, 97},
{37, 98},
{37, 99},
{37, 100},
{38, 42},
{38, 43},
{38, 46},
{38, 47},
{38, 52},
{38, 55},
{38, 56},
{38, 57},
{38, 58},
{38, 59},
{38, 62},
{38, 67},
{38, 70},
{38, 71},
{38, 73},
{38, 75},
{38, 79},
{38, 84},
{38, 88},
{38, 91},
{38, 92},
{38, 93},
{38, 96},
{38, 98},
{38, 99},
{39, 42},
{39, 45},
{39, 47},
{39, 49},
{39, 51},
{39, 54},
{39, 56},
{39, 61},
{39, 63},
{39, 67},
{39, 68},
{39, 71},
{39, 73},
{39, 74},
{39, 77},
{39, 80},
{39, 81},
{39, 83},
{39, 85},
{39, 86},
{39, 87},
{39, 88},
{39, 89},
{39, 91},
{39, 94},
{39, 98},
{39, 99},
{40, 41},
{40, 42},
{40, 43},
{40, 45},
{40, 46},
{40, 47},
{40, 48},
{40, 51},
{40, 53},
{40, 54},
{40, 56},
{40, 57},
{40, 58},
{40, 65},
{40, 66},
{40, 67},
{40, 71},
{40, 74},
{40, 76},
{40, 78},
{40, 79},
{40, 82},
{40, 84},
{40, 87},
{40, 89},
{40, 91},
{40, 92},
{40, 93},
{40, 99},
{40, 100},
{41, 42},
{41, 43},
{41, 52},
{41, 57},
{41, 58},
{41, 60},
{41, 61},
{41, 65},
{41, 66},
{41, 68},
{41, 77},
{41, 79},
{41, 81},
{41, 88},
{41, 89},
{41, 90},
{41, 94},
{41, 96},
{41, 97},
{41, 98},
{41, 99},
{42, 43},
{42, 46},
{42, 49},
{42, 51},
{42, 52},
{42, 53},
{42, 58},
{42, 59},
{42, 60},
{42, 63},
{42, 65},
{42, 67},
{42, 71},
{42, 74},
{42, 75},
{42, 76},
{42, 77},
{42, 78},
{42, 80},
{42, 83},
{42, 84},
{42, 87},
{42, 88},
{42, 90},
{42, 91},
{42, 92},
{42, 96},
{42, 97},
{42, 99},
{43, 44},
{43, 45},
{43, 47},
{43, 48},
{43, 49},
{43, 50},
{43, 57},
{43, 60},
{43, 61},
{43, 63},
{43, 64},
{43, 65},
{43, 66},
{43, 67},
{43, 69},
{43, 70},
{43, 71},
{43, 72},
{43, 73},
{43, 74},
{43, 75},
{43, 78},
{43, 79},
{43, 83},
{43, 86},
{43, 87},
{43, 88},
{43, 89},
{43, 91},
{43, 93},
{43, 94},
{43, 95},
{43, 99},
{44, 46},
{44, 47},
{44, 48},
{44, 49},
{44, 52},
{44, 53},
{44, 54},
{44, 55},
{44, 56},
{44, 59},
{44, 61},
{44, 62},
{44, 65},
{44, 66},
{44, 67},
{44, 68},
{44, 72},
{44, 76},
{44, 79},
{44, 80},
{44, 81},
{44, 84},
{44, 86},
{44, 87},
{44, 88},
{44, 92},
{44, 93},
{44, 96},
{45, 49},
{45, 50},
{45, 53},
{45, 54},
{45, 56},
{45, 58},
{45, 60},
{45, 62},
{45, 67},
{45, 68},
{45, 69},
{45, 70},
{45, 71},
{45, 72},
{45, 75},
{45, 77},
{45, 78},
{45, 80},
{45, 84},
{45, 86},
{45, 87},
{45, 88},
{45, 90},
{45, 92},
{45, 93},
{45, 98},
{46, 47},
{46, 48},
{46, 49},
{46, 50},
{46, 52},
{46, 53},
{46, 54},
{46, 55},
{46, 56},
{46, 57},
{46, 58},
{46, 59},
{46, 60},
{46, 61},
{46, 62},
{46, 63},
{46, 71},
{46, 72},
{46, 73},
{46, 74},
{46, 75},
{46, 76},
{46, 78},
{46, 79},
{46, 80},
{46, 83},
{46, 88},
{46, 89},
{46, 90},
{46, 91},
{46, 95},
{47, 52},
{47, 56},
{47, 57},
{47, 59},
{47, 60},
{47, 62},
{47, 63},
{47, 64},
{47, 65},
{47, 66},
{47, 69},
{47, 71},
{47, 76},
{47, 82},
{47, 84},
{47, 86},
{47, 89},
{47, 90},
{47, 91},
{47, 92},
{47, 93},
{47, 95},
{47, 96},
{47, 100},
{48, 53},
{48, 54},
{48, 58},
{48, 59},
{48, 60},
{48, 61},
{48, 64},
{48, 65},
{48, 66},
{48, 68},
{48, 70},
{48, 71},
{48, 72},
{48, 74},
{48, 75},
{48, 76},
{48, 79},
{48, 81},
{48, 82},
{48, 83},
{48, 84},
{48, 86},
{48, 87},
{48, 88},
{48, 89},
{48, 90},
{48, 91},
{48, 96},
{48, 98},
{48, 99},
{48, 100},
{49, 52},
{49, 54},
{49, 57},
{49, 58},
{49, 61},
{49, 63},
{49, 65},
{49, 66},
{49, 67},
{49, 68},
{49, 70},
{49, 72},
{49, 74},
{49, 76},
{49, 82},
{49, 85},
{49, 86},
{49, 89},
{49, 93},
{49, 95},
{49, 96},
{49, 100},
{50, 51},
{50, 52},
{50, 55},
{50, 56},
{50, 57},
{50, 61},
{50, 62},
{50, 65},
{50, 66},
{50, 67},
{50, 70},
{50, 71},
{50, 72},
{50, 73},
{50, 75},
{50, 77},
{50, 78},
{50, 80},
{50, 81},
{50, 86},
{50, 89},
{50, 90},
{50, 91},
{50, 95},
{50, 96},
{50, 97},
{50, 99},
{50, 100},
{51, 54},
{51, 57},
{51, 58},
{51, 59},
{51, 60},
{51, 63},
{51, 67},
{51, 69},
{51, 71},
{51, 74},
{51, 75},
{51, 76},
{51, 77},
{51, 81},
{51, 82},
{51, 84},
{51, 85},
{51, 89},
{51, 91},
{51, 96},
{51, 97},
{51, 98},
{52, 53},
{52, 55},
{52, 56},
{52, 57},
{52, 59},
{52, 60},
{52, 61},
{52, 62},
{52, 64},
{52, 65},
{52, 66},
{52, 68},
{52, 69},
{52, 70},
{52, 73},
{52, 75},
{52, 77},
{52, 79},
{52, 80},
{52, 82},
{52, 86},
{52, 87},
{52, 89},
{52, 90},
{52, 92},
{52, 94},
{52, 95},
{52, 99},
{53, 55},
{53, 57},
{53, 62},
{53, 64},
{53, 66},
{53, 67},
{53, 69},
{53, 71},
{53, 73},
{53, 75},
{53, 76},
{53, 80},
{53, 81},
{53, 82},
{53, 84},
{53, 85},
{53, 87},
{53, 89},
{53, 92},
{53, 95},
{53, 96},
{53, 97},
{54, 55},
{54, 56},
{54, 59},
{54, 60},
{54, 62},
{54, 65},
{54, 67},
{54, 68},
{54, 69},
{54, 71},
{54, 74},
{54, 75},
{54, 77},
{54, 79},
{54, 81},
{54, 82},
{54, 83},
{54, 84},
{54, 86},
{54, 87},
{54, 88},
{54, 92},
{54, 94},
{54, 97},
{55, 60},
{55, 64},
{55, 65},
{55, 66},
{55, 67},
{55, 71},
{55, 72},
{55, 75},
{55, 78},
{55, 79},
{55, 81},
{55, 82},
{55, 84},
{55, 85},
{55, 87},
{55, 88},
{55, 90},
{55, 91},
{55, 93},
{55, 95},
{55, 96},
{55, 97},
{55, 98},
{55, 100},
{56, 57},
{56, 59},
{56, 62},
{56, 63},
{56, 64},
{56, 65},
{56, 67},
{56, 69},
{56, 70},
{56, 75},
{56, 77},
{56, 80},
{56, 85},
{56, 86},
{56, 89},
{56, 92},
{56, 97},
{56, 98},
{56, 99},
{56, 100},
{57, 58},
{57, 61},
{57, 67},
{57, 68},
{57, 71},
{57, 72},
{57, 74},
{57, 76},
{57, 77},
{57, 85},
{57, 87},
{57, 88},
{57, 89},
{57, 90},
{57, 92},
{57, 93},
{57, 94},
{57, 95},
{57, 97},
{57, 98},
{57, 99},
{57, 100},
{58, 60},
{58, 61},
{58, 62},
{58, 63},
{58, 64},
{58, 69},
{58, 70},
{58, 74},
{58, 75},
{58, 76},
{58, 80},
{58, 81},
{58, 86},
{58, 87},
{58, 92},
{58, 94},
{58, 97},
{58, 100},
{59, 61},
{59, 63},
{59, 64},
{59, 67},
{59, 69},
{59, 70},
{59, 71},
{59, 79},
{59, 81},
{59, 82},
{59, 88},
{59, 89},
{59, 91},
{59, 92},
{59, 94},
{59, 95},
{59, 96},
{59, 97},
{59, 98},
{59, 99},
{59, 100},
{60, 61},
{60, 63},
{60, 67},
{60, 68},
{60, 70},
{60, 71},
{60, 74},
{60, 75},
{60, 80},
{60, 81},
{60, 83},
{60, 84},
{60, 85},
{60, 91},
{60, 94},
{60, 95},
{60, 96},
{60, 97},
{60, 98},
{61, 63},
{61, 66},
{61, 67},
{61, 69},
{61, 70},
{61, 74},
{61, 78},
{61, 79},
{61, 80},
{61, 81},
{61, 84},
{61, 86},
{61, 87},
{61, 90},
{61, 92},
{61, 93},
{61, 95},
{61, 97},
{61, 99},
{62, 72},
{62, 75},
{62, 76},
{62, 77},
{62, 78},
{62, 79},
{62, 84},
{62, 85},
{62, 89},
{62, 92},
{62, 93},
{62, 96},
{62, 97},
{62, 98},
{62, 100},
{63, 66},
{63, 69},
{63, 73},
{63, 74},
{63, 77},
{63, 82},
{63, 83},
{63, 85},
{63, 86},
{63, 88},
{63, 89},
{63, 90},
{63, 91},
{63, 93},
{63, 94},
{63, 95},
{63, 97},
{64, 65},
{64, 67},
{64, 72},
{64, 75},
{64, 76},
{64, 77},
{64, 84},
{64, 86},
{64, 88},
{64, 91},
{64, 93},
{64, 94},
{64, 96},
{64, 98},
{64, 100},
{65, 66},
{65, 71},
{65, 72},
{65, 75},
{65, 81},
{65, 83},
{65, 84},
{65, 88},
{65, 94},
{65, 95},
{66, 71},
{66, 72},
{66, 74},
{66, 76},
{66, 77},
{66, 79},
{66, 80},
{66, 82},
{66, 83},
{66, 84},
{66, 86},
{66, 87},
{66, 88},
{66, 90},
{66, 91},
{66, 92},
{66, 93},
{66, 94},
{66, 99},
{67, 68},
{67, 71},
{67, 73},
{67, 74},
{67, 79},
{67, 82},
{67, 84},
{67, 86},
{67, 87},
{67, 92},
{67, 93},
{67, 94},
{67, 95},
{68, 70},
{68, 71},
{68, 77},
{68, 81},
{68, 85},
{68, 87},
{68, 89},
{68, 90},
{68, 95},
{69, 70},
{69, 76},
{69, 79},
{69, 81},
{69, 83},
{69, 84},
{69, 85},
{69, 87},
{69, 89},
{69, 90},
{69, 92},
{69, 93},
{69, 95},
{70, 74},
{70, 76},
{70, 77},
{70, 78},
{70, 79},
{70, 80},
{70, 81},
{70, 84},
{70, 86},
{70, 88},
{70, 89},
{70, 93},
{70, 97},
{70, 100},
{71, 73},
{71, 75},
{71, 81},
{71, 84},
{71, 87},
{71, 89},
{71, 93},
{71, 96},
{71, 97},
{71, 99},
{71, 100},
{72, 73},
{72, 75},
{72, 76},
{72, 79},
{72, 81},
{72, 82},
{72, 87},
{72, 88},
{72, 89},
{72, 90},
{72, 92},
{72, 93},
{72, 94},
{72, 95},
{72, 96},
{72, 100},
{73, 75},
{73, 77},
{73, 79},
{73, 81},
{73, 86},
{73, 88},
{73, 89},
{73, 90},
{73, 94},
{73, 95},
{73, 96},
{73, 99},
{73, 100},
{74, 75},
{74, 76},
{74, 80},
{74, 83},
{74, 84},
{74, 88},
{74, 89},
{74, 90},
{74, 91},
{74, 94},
{74, 96},
{74, 99},
{74, 100},
{75, 76},
{75, 77},
{75, 78},
{75, 81},
{75, 82},
{75, 84},
{75, 86},
{75, 92},
{75, 95},
{75, 96},
{75, 97},
{75, 98},
{75, 99},
{76, 78},
{76, 80},
{76, 84},
{76, 87},
{76, 88},
{76, 90},
{76, 91},
{76, 95},
{76, 98},
{77, 78},
{77, 79},
{77, 80},
{77, 85},
{77, 87},
{77, 88},
{77, 92},
{77, 94},
{77, 96},
{77, 97},
{77, 98},
{77, 100},
{78, 79},
{78, 80},
{78, 81},
{78, 82},
{78, 85},
{78, 90},
{78, 91},
{78, 93},
{78, 94},
{78, 96},
{78, 97},
{79, 86},
{79, 88},
{79, 89},
{79, 90},
{79, 92},
{79, 95},
{79, 96},
{79, 98},
{79, 100},
{80, 81},
{80, 82},
{80, 83},
{80, 85},
{80, 87},
{80, 88},
{80, 89},
{80, 93},
{80, 94},
{80, 96},
{80, 97},
{80, 98},
{81, 82},
{81, 83},
{81, 84},
{81, 85},
{81, 89},
{81, 90},
{81, 91},
{81, 92},
{81, 94},
{81, 98},
{81, 99},
{81, 100},
{82, 85},
{82, 86},
{82, 87},
{82, 88},
{82, 89},
{82, 90},
{82, 91},
{82, 93},
{82, 95},
{82, 97},
{82, 98},
{82, 99},
{83, 84},
{83, 88},
{83, 94},
{83, 95},
{83, 96},
{83, 100},
{84, 85},
{84, 87},
{84, 88},
{84, 91},
{84, 92},
{84, 93},
{84, 95},
{84, 100},
{85, 86},
{85, 87},
{85, 88},
{85, 89},
{85, 93},
{85, 94},
{85, 95},
{85, 96},
{85, 97},
{85, 98},
{86, 89},
{86, 91},
{86, 93},
{86, 94},
{86, 98},
{86, 99},
{87, 88},
{87, 89},
{87, 93},
{87, 95},
{87, 97},
{87, 98},
{87, 99},
{88, 89},
{88, 93},
{88, 94},
{88, 95},
{88, 96},
{88, 97},
{89, 90},
{89, 91},
{89, 93},
{89, 94},
{89, 100},
{90, 91},
{90, 93},
{90, 94},
{90, 95},
{90, 96},
{90, 99},
{91, 98},
{91, 99},
{91, 100},
{92, 93},
{92, 94},
{92, 97},
{92, 99},
{93, 94},
{93, 96},
{93, 99},
{94, 99},
{94, 100},
{95, 96},
{95, 98},
{96, 99},
{96, 100},
{97, 99},
{97, 100}}
